c smth
s vc 200 138
197
196
195
194
193
191
190
189
188
187
185
183
182
181
180
179
178
173
172
171
169
167
166
165
164
163
161
157
156
154
153
150
149
148
147
146
142
140
138
136
135
132
130
129
128
126
122
121
120
119
118
117
116
115
114
113
112
111
110
109
107
105
104
101
99
98
97
95
94
92
91
90
89
87
85
84
83
81
79
78
77
76
75
74
73
72
71
69
67
66
65
64
63
61
60
57
56
55
53
52
51
49
47
46
44
43
42
41
40
38
37
36
35
34
33
32
31
30
29
27
25
23
22
20
19
18
17
16
13
12
11
9
7
6
5
4
3
1